(assert (forall ((pkt_0_4_6_0  Int  )(state_group_0_state_0_5_7_0  Int  )(state_group_0_state_1_6_8_0  Int  )) (let ((_n0 state_group_0_state_0_5_7_0 ))
(let ((_n1 2 ))
(let ((_n2 (ite (=  _n0  1)  _n1   _n0  ) ))
(let ((_n3 state_group_0_state_1_6_8_0 ))
(let ((_n4 false ))
(let ((_n5 (ite (=  _n0  1)  (ite  _n4  1 0)   _n3  ) ))
(let ((_n6 3 ))
(let ((_n7 (ite (=  _n5  999)  _n6   _n2  ) ))
(let ((_n8 (ite (=  _n2  2)  _n7   _n2  ) ))
(let ((_n9 (=   _n0   _n1 ) ))
(let ((_n10 (not  _n9 ) ))
(let ((_n11 1000 ))
(let ((_n12 (ite (=  _n0  2)  _n3   (ite  _n4  1 0)  ) ))
(let ((_n13 (=   _n12   _n11 ) ))
(let ((_n14 (not  _n13 ) ))
(let ((_n15 (and   _n9   _n14 ) ))
(let ((_n16 true ))
(let ((_n17 (and   _n15   _n9 ) ))
(let ((_n18 pkt_0_4_6_0 ))
(let ((_n19 (ite  _n17   _n18   (ite  _n4  1 0)  ) ))
(let ((_n20 (=   _n19   (ite  _n16  1 0) ) ))
(let ((_n21 (not  _n20 ) ))
(let ((_n22 (and   _n17   _n21 ) ))
(let ((_n23 (and   _n22   _n17 ) ))
(let ((_n24 (ite  _n23   _n1   (ite  _n4  1 0)  ) ))
(let ((_n25 (ite  _n23   (ite  _n4  1 0)   _n0  ) ))
(let ((_n26 (+   _n25   _n24 ) ))
(let ((_n27 (ite (=  (ite  _n22  1 0)  1)  _n26   _n0  ) ))
(let ((_n28 (ite (=  (ite  _n15  1 0)  1)  _n27   _n0  ) ))
(let ((_n29 (ite (=  _n0  2)  (ite  _n4  1 0)   _n0  ) ))
(let ((_n30 (=   _n29   (ite  _n16  1 0) ) ))
(let ((_n31 (not  _n30 ) ))
(let ((_n32 (and   _n10   _n31 ) ))
(let ((_n33 (or   _n32   _n9 ) ))
(let ((_n34 (not  _n33 ) ))
(let ((_n35 (-  (ite  _n34  1 0) )))
(let ((_n36 (ite  _n33   (ite  _n4  1 0)   _n6  ) ))
(let ((_n37 (+   _n36   _n35 ) ))
(let ((_n38 (ite  _n33   (ite  _n4  1 0)   _n37  ) ))
(let ((_n39 (ite  _n33   _n0   (ite  _n4  1 0)  ) ))
(let ((_n40 (+   _n39   _n38 ) ))
(let ((_n41 (ite (=  (ite  _n32  1 0)  1)  _n0   _n40  ) ))
(let ((_n42 (ite (=  (ite  _n10  1 0)  1)  _n41   _n28  ) ))
(let ((_n43 (=   _n42   _n8 ) ))
(let ((_n45 (+   _n5   (ite  _n16  1 0) ) ))
(let ((_n46 (ite (=  _n2  2)  _n45   _n5  ) ))
(let ((_n47 (not  _n17 ) ))
(let ((_n48 (or   _n22   _n47 ) ))
(let ((_n49 (not  _n48 ) ))
(let ((_n50 (-  (ite  _n49  1 0) )))
(let ((_n51 (ite  _n48   (ite  _n4  1 0)   _n1  ) ))
(let ((_n52 (+   _n51   _n50 ) ))
(let ((_n53 (ite  _n48   (ite  _n4  1 0)   _n52  ) ))
(let ((_n54 (+   _n3   _n53 ) ))
(let ((_n55 (-  _n24 )))
(let ((_n56 (ite  _n23   _n6   (ite  _n4  1 0)  ) ))
(let ((_n57 (+   _n56   _n55 ) ))
(let ((_n58 (ite  _n23   _n57   (ite  _n4  1 0)  ) ))
(let ((_n59 (+   _n3   _n58 ) ))
(let ((_n60 (ite (=  (ite  _n22  1 0)  1)  _n59   _n54  ) ))
(let ((_n61 (ite (=  (ite  _n15  1 0)  1)  _n60   _n3  ) ))
(let ((_n62 (ite  _n33   _n3   (ite  _n4  1 0)  ) ))
(let ((_n63 (+   _n62   (ite  _n34  1 0) ) ))
(let ((_n64 (ite (=  (ite  _n32  1 0)  1)  _n3   _n63  ) ))
(let ((_n65 (ite (=  (ite  _n10  1 0)  1)  _n64   _n61  ) ))
(let ((_n66 (=   _n65   _n46 ) ))
(implies  (and (and (>= state_group_0_state_1_6_8_0 0) (< state_group_0_state_1_6_8_0 1024 ))  (and (and (>= state_group_0_state_0_5_7_0 0) (< state_group_0_state_0_5_7_0 1024 ))  (and (>= pkt_0_4_6_0 0) (< pkt_0_4_6_0 1024 )) ) )   (and  _n43  _n66 )  )))))))))))))))))))))))))))))))))))))))))))))))))))))))))))))))))))))
(check-sat)
(get-model)
(exit)